NAME 
ROWS
 N  OBJ
 L  R0      
 L  R1      
 L  R2      
 L  R3      
 L  R4      
 L  R5      
 L  R6      
 L  R7      
 L  R8      
 L  R9      
COLUMNS
    MARKER    'MARKER'                 'INTORG'
    x[0]      OBJ       3
    x[0]      R0        -9
    x[0]      R1        7
    x[0]      R2        -5
    x[0]      R3        2
    x[0]      R4        -5
    x[1]      OBJ       -7
    x[1]      R0        9
    x[1]      R1        8
    x[1]      R2        4
    x[1]      R3        6
    x[1]      R4        10
    x[1]      R5        1
    x[1]      R6        -1
    x[2]      OBJ       -1
    x[2]      R0        6
    x[2]      R1        -4
    x[2]      R2        10
    x[2]      R3        -10
    x[2]      R4        1
    x[2]      R5        1
    x[2]      R6        1
    x[2]      R8        1
    x[3]      OBJ       2
    x[3]      R0        3
    x[3]      R1        -7
    x[3]      R2        -10
    x[3]      R3        -9
    x[3]      R4        5
    x[3]      R6        1
    x[3]      R9        1
    x[4]      OBJ       2
    x[4]      R0        -2
    x[4]      R2        -5
    x[4]      R3        9
    x[4]      R4        -8
    x[4]      R6        -1
    x[5]      OBJ       3
    x[5]      R0        -8
    x[5]      R1        8
    x[5]      R2        -3
    x[5]      R3        6
    x[5]      R4        4
    x[5]      R5        -1
    x[5]      R8        1
    x[6]      OBJ       -1
    x[6]      R0        -10
    x[6]      R1        6
    x[6]      R2        -5
    x[6]      R3        -1
    x[6]      R4        -4
    x[6]      R5        1
    x[6]      R8        -1
    x[6]      R9        -1
    x[7]      OBJ       -4
    x[7]      R0        5
    x[7]      R1        7
    x[7]      R2        6
    x[7]      R3        2
    x[7]      R5        -1
    x[7]      R6        -1
    x[7]      R9        1
    x[8]      OBJ       3
    x[8]      R0        9
    x[8]      R1        1
    x[8]      R2        -6
    x[8]      R4        -9
    x[8]      R7        -1
    x[8]      R8        1
    x[8]      R9        -1
    x[9]      OBJ       4
    x[9]      R0        -6
    x[9]      R1        4
    x[9]      R2        -10
    x[9]      R3        7
    x[9]      R4        -7
    x[9]      R5        -1
    x[9]      R6        -1
    x[9]      R7        1
    x[9]      R9        1
    y[0]      OBJ       -4
    y[0]      R0        -3
    y[0]      R2        3
    y[0]      R3        4
    y[0]      R4        -1
    y[0]      R5        48
    y[0]      R6        -24
    y[0]      R7        13
    y[0]      R8        80
    y[0]      R9        -83
    y[1]      OBJ       -3
    y[1]      R0        -9
    y[1]      R1        -4
    y[1]      R2        -4
    y[1]      R3        -3
    y[1]      R4        -3
    y[1]      R5        13
    y[1]      R6        -13
    y[1]      R7        -36
    y[1]      R8        -32
    y[1]      R9        66
    y[2]      OBJ       -3
    y[2]      R0        -2
    y[2]      R1        -2
    y[2]      R2        10
    y[2]      R3        10
    y[2]      R4        -4
    y[2]      R5        -10
    y[2]      R6        89
    y[2]      R7        7
    y[2]      R8        -8
    y[2]      R9        27
    y[3]      OBJ       -8
    y[3]      R0        -2
    y[3]      R1        -8
    y[3]      R2        10
    y[3]      R3        2
    y[3]      R4        -1
    y[3]      R5        78
    y[3]      R6        4
    y[3]      R7        90
    y[3]      R8        2
    y[3]      R9        -18
    y[4]      OBJ       -1
    y[4]      R0        -10
    y[4]      R1        -9
    y[4]      R2        -10
    y[4]      R3        -3
    y[4]      R4        -10
    y[4]      R5        -78
    y[4]      R6        30
    y[4]      R7        -24
    y[4]      R8        -93
    y[4]      R9        -86
    y[5]      OBJ       -1
    y[5]      R0        -4
    y[5]      R1        -10
    y[5]      R2        -5
    y[5]      R3        -4
    y[5]      R4        8
    y[5]      R5        -98
    y[5]      R6        50
    y[5]      R7        -52
    y[5]      R8        88
    y[5]      R9        65
    y[6]      OBJ       -10
    y[6]      R0        -10
    y[6]      R1        2
    y[6]      R2        5
    y[6]      R3        8
    y[6]      R4        -9
    y[6]      R5        91
    y[6]      R6        -18
    y[6]      R7        -64
    y[6]      R8        -91
    y[6]      R9        90
    y[7]      OBJ       -6
    y[7]      R0        -3
    y[7]      R1        -4
    y[7]      R2        -5
    y[7]      R3        -10
    y[7]      R4        -6
    y[7]      R5        5
    y[7]      R6        -53
    y[7]      R7        -51
    y[7]      R8        62
    y[7]      R9        28
    y[8]      OBJ       -6
    y[8]      R0        10
    y[8]      R1        -5
    y[8]      R2        -9
    y[8]      R4        2
    y[8]      R5        28
    y[8]      R6        -71
    y[8]      R7        -86
    y[8]      R8        -37
    y[8]      R9        61
    y[9]      OBJ       -1
    y[9]      R0        -4
    y[9]      R1        10
    y[9]      R2        -10
    y[9]      R3        2
    y[9]      R4        -4
    y[9]      R5        -8
    y[9]      R6        22
    y[9]      R7        -27
    y[9]      R8        -34
    y[9]      R9        77
    MARKER    'MARKER'                 'INTEND'
RHS
    RHS1      R0        -10
    RHS1      R2        -9.75
    RHS1      R3        4.5
    RHS1      R4        -10.25
    RHS1      R5        17
    RHS1      R6        4
    RHS1      R7        -58
    RHS1      R8        -15
    RHS1      R9        57
BOUNDS
 BV BND1      x[0]    
 BV BND1      x[1]    
 BV BND1      x[2]    
 BV BND1      x[3]    
 BV BND1      x[4]    
 BV BND1      x[5]    
 BV BND1      x[6]    
 BV BND1      x[7]    
 BV BND1      x[8]    
 BV BND1      x[9]    
 BV BND1      y[0]    
 BV BND1      y[1]    
 BV BND1      y[2]    
 BV BND1      y[3]    
 BV BND1      y[4]    
 BV BND1      y[5]    
 BV BND1      y[6]    
 BV BND1      y[7]    
 BV BND1      y[8]    
 BV BND1      y[9]    
ENDATA
